SYSTEM = SrVO3
ISMEAR =  0
SIGMA =  0.05
EDIFF = 1E-8
NBANDS =96
ALGO = CRPA
#NCRPAHIGH= 23
#NCRPALOW= 21
NTARGET_STATES = 3*1 
LWAVE = .FALSE.
NCSHMEM=1 
