SYSTEM = SrMoO3-pdd
ISMEAR =  0
SIGMA =  0.01
EDIFF = 1E-8
ALGO = Exact ; NELM=1
LOPTICS = .TRUE.
LWAVE = .TRUE.
ENCUT=500
NBANDS =280
NCORE=5
LMAXMIX=6
LORBIT=11

