SYSTEM = SrMoO3-pdd
ISMEAR =  0
SIGMA =  0.01
EDIFF = 1E-8
NCORE=5
ENCUT=500
LMAXMIX=6
LORBIT=11
