Automatically generated mesh
       0
Gamma
7 7 7
0  0  0 
