SrMoO3-exp-pm3m
   1.0000000000000000
     3.976293   -0.0000000000000000   -0.0000000000000000
    -0.0000000000000000    3.976293   -0.0000000000000000
     0.0000000000000000   -0.0000000000000000   3.976293
   Sr   Mo   O
     1     1     3
Direct
  0.5000000000000000  0.5000000000000000  0.5000000000000000
  0.0000000000000000  0.0000000000000000  0.0000000000000000
  0.0000000000000000  0.5000000000000000  0.0000000000000000
  0.0000000000000000  0.0000000000000000  0.5000000000000000
  0.5000000000000000  0.0000000000000000  0.0000000000000000
