num_wann  = 19
num_bands = 23

exclude_bands = 1-10, 34-280

num_iter = 1000
conv_window = 5
conv_tol = 1e-15
conv_noise_amp = 1

dis_win_min = -0.9
dis_win_max = 20.0
dis_froz_min = -0.4
dis_froz_max = 9.5
dis_num_iter = 10000
dis_conv_tol = 1e-10 
dis_conv_window = 3

begin projections
Mo:l=2,mr=1,2,3,4,5
O:l=1,mr=1,2,3
Sr:l=2,mr=1,2,3,4,5
end projections

begin kpoint_path
 R  0.500  0.500  0.500  G  0.000  0.000  0.000
 G  0.000  0.000  0.000  X  0.500  0.000  0.000
 X  0.500  0.000  0.000  M  0.500  0.500  0.000
 M  0.500  0.500  0.000  G  0.000  0.000  0.000
end kpoint_path

write_hr = true
bands_plot = true
bands_num_points  = 100
bands_plot_format = gnuplot

begin unit_cell_cart
     3.9762930     0.0000000     0.0000000
     0.0000000     3.9762930     0.0000000
     0.0000000     0.0000000     3.9762930
end unit_cell_cart

begin atoms_cart
Sr       1.9881465     1.9881465     1.9881465
Mo       0.0000000     0.0000000     0.0000000
O        0.0000000     1.9881465     0.0000000
O        0.0000000     0.0000000     1.9881465
O        1.9881465     0.0000000     0.0000000
end atoms_cart




mp_grid =     7     7     7

begin kpoints
      0.000000000000      0.000000000000      0.000000000000
      0.142857142857      0.000000000000      0.000000000000
      0.285714285714      0.000000000000      0.000000000000
      0.428571428571      0.000000000000      0.000000000000
      0.142857142857      0.142857142857      0.000000000000
      0.285714285714      0.142857142857      0.000000000000
      0.428571428571      0.142857142857      0.000000000000
      0.285714285714      0.285714285714      0.000000000000
      0.428571428571      0.285714285714      0.000000000000
      0.428571428571      0.428571428571      0.000000000000
      0.142857142857      0.142857142857      0.142857142857
      0.285714285714      0.142857142857      0.142857142857
      0.428571428571      0.142857142857      0.142857142857
      0.285714285714      0.285714285714      0.142857142857
      0.428571428571      0.285714285714      0.142857142857
      0.428571428571      0.428571428571      0.142857142857
      0.285714285714      0.285714285714      0.285714285714
      0.428571428571      0.285714285714      0.285714285714
      0.428571428571      0.428571428571      0.285714285714
      0.428571428571      0.428571428571      0.428571428571
     -0.428571428571      0.000000000000      0.000000000000
     -0.285714285714      0.000000000000      0.000000000000
     -0.142857142857      0.000000000000      0.000000000000
      0.000000000000      0.142857142857      0.000000000000
     -0.428571428571      0.142857142857      0.000000000000
     -0.285714285714      0.142857142857      0.000000000000
     -0.142857142857      0.142857142857      0.000000000000
      0.000000000000      0.285714285714      0.000000000000
      0.142857142857      0.285714285714      0.000000000000
     -0.428571428571      0.285714285714      0.000000000000
     -0.285714285714      0.285714285714      0.000000000000
     -0.142857142857      0.285714285714      0.000000000000
      0.000000000000      0.428571428571      0.000000000000
      0.142857142857      0.428571428571      0.000000000000
      0.285714285714      0.428571428571      0.000000000000
     -0.428571428571      0.428571428571      0.000000000000
     -0.285714285714      0.428571428571      0.000000000000
     -0.142857142857      0.428571428571      0.000000000000
      0.000000000000     -0.428571428571      0.000000000000
      0.142857142857     -0.428571428571      0.000000000000
      0.285714285714     -0.428571428571      0.000000000000
      0.428571428571     -0.428571428571      0.000000000000
     -0.428571428571     -0.428571428571      0.000000000000
     -0.285714285714     -0.428571428571      0.000000000000
     -0.142857142857     -0.428571428571      0.000000000000
      0.000000000000     -0.285714285714      0.000000000000
      0.142857142857     -0.285714285714      0.000000000000
      0.285714285714     -0.285714285714      0.000000000000
      0.428571428571     -0.285714285714      0.000000000000
     -0.428571428571     -0.285714285714      0.000000000000
     -0.285714285714     -0.285714285714      0.000000000000
     -0.142857142857     -0.285714285714      0.000000000000
      0.000000000000     -0.142857142857      0.000000000000
      0.142857142857     -0.142857142857      0.000000000000
      0.285714285714     -0.142857142857      0.000000000000
      0.428571428571     -0.142857142857      0.000000000000
     -0.428571428571     -0.142857142857      0.000000000000
     -0.285714285714     -0.142857142857      0.000000000000
     -0.142857142857     -0.142857142857      0.000000000000
      0.000000000000      0.000000000000      0.142857142857
      0.142857142857      0.000000000000      0.142857142857
      0.285714285714      0.000000000000      0.142857142857
      0.428571428571      0.000000000000      0.142857142857
     -0.428571428571      0.000000000000      0.142857142857
     -0.285714285714      0.000000000000      0.142857142857
     -0.142857142857      0.000000000000      0.142857142857
      0.000000000000      0.142857142857      0.142857142857
     -0.428571428571      0.142857142857      0.142857142857
     -0.285714285714      0.142857142857      0.142857142857
     -0.142857142857      0.142857142857      0.142857142857
      0.000000000000      0.285714285714      0.142857142857
      0.142857142857      0.285714285714      0.142857142857
     -0.428571428571      0.285714285714      0.142857142857
     -0.285714285714      0.285714285714      0.142857142857
     -0.142857142857      0.285714285714      0.142857142857
      0.000000000000      0.428571428571      0.142857142857
      0.142857142857      0.428571428571      0.142857142857
      0.285714285714      0.428571428571      0.142857142857
     -0.428571428571      0.428571428571      0.142857142857
     -0.285714285714      0.428571428571      0.142857142857
     -0.142857142857      0.428571428571      0.142857142857
      0.000000000000     -0.428571428571      0.142857142857
      0.142857142857     -0.428571428571      0.142857142857
      0.285714285714     -0.428571428571      0.142857142857
      0.428571428571     -0.428571428571      0.142857142857
     -0.428571428571     -0.428571428571      0.142857142857
     -0.285714285714     -0.428571428571      0.142857142857
     -0.142857142857     -0.428571428571      0.142857142857
      0.000000000000     -0.285714285714      0.142857142857
      0.142857142857     -0.285714285714      0.142857142857
      0.285714285714     -0.285714285714      0.142857142857
      0.428571428571     -0.285714285714      0.142857142857
     -0.428571428571     -0.285714285714      0.142857142857
     -0.285714285714     -0.285714285714      0.142857142857
     -0.142857142857     -0.285714285714      0.142857142857
      0.000000000000     -0.142857142857      0.142857142857
      0.142857142857     -0.142857142857      0.142857142857
      0.285714285714     -0.142857142857      0.142857142857
      0.428571428571     -0.142857142857      0.142857142857
     -0.428571428571     -0.142857142857      0.142857142857
     -0.285714285714     -0.142857142857      0.142857142857
     -0.142857142857     -0.142857142857      0.142857142857
      0.000000000000      0.000000000000      0.285714285714
      0.142857142857      0.000000000000      0.285714285714
      0.285714285714      0.000000000000      0.285714285714
      0.428571428571      0.000000000000      0.285714285714
     -0.428571428571      0.000000000000      0.285714285714
     -0.285714285714      0.000000000000      0.285714285714
     -0.142857142857      0.000000000000      0.285714285714
      0.000000000000      0.142857142857      0.285714285714
      0.142857142857      0.142857142857      0.285714285714
      0.285714285714      0.142857142857      0.285714285714
      0.428571428571      0.142857142857      0.285714285714
     -0.428571428571      0.142857142857      0.285714285714
     -0.285714285714      0.142857142857      0.285714285714
     -0.142857142857      0.142857142857      0.285714285714
      0.000000000000      0.285714285714      0.285714285714
      0.142857142857      0.285714285714      0.285714285714
     -0.428571428571      0.285714285714      0.285714285714
     -0.285714285714      0.285714285714      0.285714285714
     -0.142857142857      0.285714285714      0.285714285714
      0.000000000000      0.428571428571      0.285714285714
      0.142857142857      0.428571428571      0.285714285714
      0.285714285714      0.428571428571      0.285714285714
     -0.428571428571      0.428571428571      0.285714285714
     -0.285714285714      0.428571428571      0.285714285714
     -0.142857142857      0.428571428571      0.285714285714
      0.000000000000     -0.428571428571      0.285714285714
      0.142857142857     -0.428571428571      0.285714285714
      0.285714285714     -0.428571428571      0.285714285714
      0.428571428571     -0.428571428571      0.285714285714
     -0.428571428571     -0.428571428571      0.285714285714
     -0.285714285714     -0.428571428571      0.285714285714
     -0.142857142857     -0.428571428571      0.285714285714
      0.000000000000     -0.285714285714      0.285714285714
      0.142857142857     -0.285714285714      0.285714285714
      0.285714285714     -0.285714285714      0.285714285714
      0.428571428571     -0.285714285714      0.285714285714
     -0.428571428571     -0.285714285714      0.285714285714
     -0.285714285714     -0.285714285714      0.285714285714
     -0.142857142857     -0.285714285714      0.285714285714
      0.000000000000     -0.142857142857      0.285714285714
      0.142857142857     -0.142857142857      0.285714285714
      0.285714285714     -0.142857142857      0.285714285714
      0.428571428571     -0.142857142857      0.285714285714
     -0.428571428571     -0.142857142857      0.285714285714
     -0.285714285714     -0.142857142857      0.285714285714
     -0.142857142857     -0.142857142857      0.285714285714
      0.000000000000      0.000000000000      0.428571428571
      0.142857142857      0.000000000000      0.428571428571
      0.285714285714      0.000000000000      0.428571428571
      0.428571428571      0.000000000000      0.428571428571
     -0.428571428571      0.000000000000      0.428571428571
     -0.285714285714      0.000000000000      0.428571428571
     -0.142857142857      0.000000000000      0.428571428571
      0.000000000000      0.142857142857      0.428571428571
      0.142857142857      0.142857142857      0.428571428571
      0.285714285714      0.142857142857      0.428571428571
      0.428571428571      0.142857142857      0.428571428571
     -0.428571428571      0.142857142857      0.428571428571
     -0.285714285714      0.142857142857      0.428571428571
     -0.142857142857      0.142857142857      0.428571428571
      0.000000000000      0.285714285714      0.428571428571
      0.142857142857      0.285714285714      0.428571428571
      0.285714285714      0.285714285714      0.428571428571
      0.428571428571      0.285714285714      0.428571428571
     -0.428571428571      0.285714285714      0.428571428571
     -0.285714285714      0.285714285714      0.428571428571
     -0.142857142857      0.285714285714      0.428571428571
      0.000000000000      0.428571428571      0.428571428571
      0.142857142857      0.428571428571      0.428571428571
      0.285714285714      0.428571428571      0.428571428571
     -0.428571428571      0.428571428571      0.428571428571
     -0.285714285714      0.428571428571      0.428571428571
     -0.142857142857      0.428571428571      0.428571428571
      0.000000000000     -0.428571428571      0.428571428571
      0.142857142857     -0.428571428571      0.428571428571
      0.285714285714     -0.428571428571      0.428571428571
      0.428571428571     -0.428571428571      0.428571428571
     -0.428571428571     -0.428571428571      0.428571428571
     -0.285714285714     -0.428571428571      0.428571428571
     -0.142857142857     -0.428571428571      0.428571428571
      0.000000000000     -0.285714285714      0.428571428571
      0.142857142857     -0.285714285714      0.428571428571
      0.285714285714     -0.285714285714      0.428571428571
      0.428571428571     -0.285714285714      0.428571428571
     -0.428571428571     -0.285714285714      0.428571428571
     -0.285714285714     -0.285714285714      0.428571428571
     -0.142857142857     -0.285714285714      0.428571428571
      0.000000000000     -0.142857142857      0.428571428571
      0.142857142857     -0.142857142857      0.428571428571
      0.285714285714     -0.142857142857      0.428571428571
      0.428571428571     -0.142857142857      0.428571428571
     -0.428571428571     -0.142857142857      0.428571428571
     -0.285714285714     -0.142857142857      0.428571428571
     -0.142857142857     -0.142857142857      0.428571428571
      0.000000000000      0.000000000000     -0.428571428571
      0.142857142857      0.000000000000     -0.428571428571
      0.285714285714      0.000000000000     -0.428571428571
      0.428571428571      0.000000000000     -0.428571428571
     -0.428571428571      0.000000000000     -0.428571428571
     -0.285714285714      0.000000000000     -0.428571428571
     -0.142857142857      0.000000000000     -0.428571428571
      0.000000000000      0.142857142857     -0.428571428571
      0.142857142857      0.142857142857     -0.428571428571
      0.285714285714      0.142857142857     -0.428571428571
      0.428571428571      0.142857142857     -0.428571428571
     -0.428571428571      0.142857142857     -0.428571428571
     -0.285714285714      0.142857142857     -0.428571428571
     -0.142857142857      0.142857142857     -0.428571428571
      0.000000000000      0.285714285714     -0.428571428571
      0.142857142857      0.285714285714     -0.428571428571
      0.285714285714      0.285714285714     -0.428571428571
      0.428571428571      0.285714285714     -0.428571428571
     -0.428571428571      0.285714285714     -0.428571428571
     -0.285714285714      0.285714285714     -0.428571428571
     -0.142857142857      0.285714285714     -0.428571428571
      0.000000000000      0.428571428571     -0.428571428571
      0.142857142857      0.428571428571     -0.428571428571
      0.285714285714      0.428571428571     -0.428571428571
      0.428571428571      0.428571428571     -0.428571428571
     -0.428571428571      0.428571428571     -0.428571428571
     -0.285714285714      0.428571428571     -0.428571428571
     -0.142857142857      0.428571428571     -0.428571428571
      0.000000000000     -0.428571428571     -0.428571428571
      0.142857142857     -0.428571428571     -0.428571428571
      0.285714285714     -0.428571428571     -0.428571428571
      0.428571428571     -0.428571428571     -0.428571428571
     -0.428571428571     -0.428571428571     -0.428571428571
     -0.285714285714     -0.428571428571     -0.428571428571
     -0.142857142857     -0.428571428571     -0.428571428571
      0.000000000000     -0.285714285714     -0.428571428571
      0.142857142857     -0.285714285714     -0.428571428571
      0.285714285714     -0.285714285714     -0.428571428571
      0.428571428571     -0.285714285714     -0.428571428571
     -0.428571428571     -0.285714285714     -0.428571428571
     -0.285714285714     -0.285714285714     -0.428571428571
     -0.142857142857     -0.285714285714     -0.428571428571
      0.000000000000     -0.142857142857     -0.428571428571
      0.142857142857     -0.142857142857     -0.428571428571
      0.285714285714     -0.142857142857     -0.428571428571
      0.428571428571     -0.142857142857     -0.428571428571
     -0.428571428571     -0.142857142857     -0.428571428571
     -0.285714285714     -0.142857142857     -0.428571428571
     -0.142857142857     -0.142857142857     -0.428571428571
      0.000000000000      0.000000000000     -0.285714285714
      0.142857142857      0.000000000000     -0.285714285714
      0.285714285714      0.000000000000     -0.285714285714
      0.428571428571      0.000000000000     -0.285714285714
     -0.428571428571      0.000000000000     -0.285714285714
     -0.285714285714      0.000000000000     -0.285714285714
     -0.142857142857      0.000000000000     -0.285714285714
      0.000000000000      0.142857142857     -0.285714285714
      0.142857142857      0.142857142857     -0.285714285714
      0.285714285714      0.142857142857     -0.285714285714
      0.428571428571      0.142857142857     -0.285714285714
     -0.428571428571      0.142857142857     -0.285714285714
     -0.285714285714      0.142857142857     -0.285714285714
     -0.142857142857      0.142857142857     -0.285714285714
      0.000000000000      0.285714285714     -0.285714285714
      0.142857142857      0.285714285714     -0.285714285714
      0.285714285714      0.285714285714     -0.285714285714
      0.428571428571      0.285714285714     -0.285714285714
     -0.428571428571      0.285714285714     -0.285714285714
     -0.285714285714      0.285714285714     -0.285714285714
     -0.142857142857      0.285714285714     -0.285714285714
      0.000000000000      0.428571428571     -0.285714285714
      0.142857142857      0.428571428571     -0.285714285714
      0.285714285714      0.428571428571     -0.285714285714
      0.428571428571      0.428571428571     -0.285714285714
     -0.428571428571      0.428571428571     -0.285714285714
     -0.285714285714      0.428571428571     -0.285714285714
     -0.142857142857      0.428571428571     -0.285714285714
      0.000000000000     -0.428571428571     -0.285714285714
      0.142857142857     -0.428571428571     -0.285714285714
      0.285714285714     -0.428571428571     -0.285714285714
      0.428571428571     -0.428571428571     -0.285714285714
     -0.428571428571     -0.428571428571     -0.285714285714
     -0.285714285714     -0.428571428571     -0.285714285714
     -0.142857142857     -0.428571428571     -0.285714285714
      0.000000000000     -0.285714285714     -0.285714285714
      0.142857142857     -0.285714285714     -0.285714285714
      0.285714285714     -0.285714285714     -0.285714285714
      0.428571428571     -0.285714285714     -0.285714285714
     -0.428571428571     -0.285714285714     -0.285714285714
     -0.285714285714     -0.285714285714     -0.285714285714
     -0.142857142857     -0.285714285714     -0.285714285714
      0.000000000000     -0.142857142857     -0.285714285714
      0.142857142857     -0.142857142857     -0.285714285714
      0.285714285714     -0.142857142857     -0.285714285714
      0.428571428571     -0.142857142857     -0.285714285714
     -0.428571428571     -0.142857142857     -0.285714285714
     -0.285714285714     -0.142857142857     -0.285714285714
     -0.142857142857     -0.142857142857     -0.285714285714
      0.000000000000      0.000000000000     -0.142857142857
      0.142857142857      0.000000000000     -0.142857142857
      0.285714285714      0.000000000000     -0.142857142857
      0.428571428571      0.000000000000     -0.142857142857
     -0.428571428571      0.000000000000     -0.142857142857
     -0.285714285714      0.000000000000     -0.142857142857
     -0.142857142857      0.000000000000     -0.142857142857
      0.000000000000      0.142857142857     -0.142857142857
      0.142857142857      0.142857142857     -0.142857142857
      0.285714285714      0.142857142857     -0.142857142857
      0.428571428571      0.142857142857     -0.142857142857
     -0.428571428571      0.142857142857     -0.142857142857
     -0.285714285714      0.142857142857     -0.142857142857
     -0.142857142857      0.142857142857     -0.142857142857
      0.000000000000      0.285714285714     -0.142857142857
      0.142857142857      0.285714285714     -0.142857142857
      0.285714285714      0.285714285714     -0.142857142857
      0.428571428571      0.285714285714     -0.142857142857
     -0.428571428571      0.285714285714     -0.142857142857
     -0.285714285714      0.285714285714     -0.142857142857
     -0.142857142857      0.285714285714     -0.142857142857
      0.000000000000      0.428571428571     -0.142857142857
      0.142857142857      0.428571428571     -0.142857142857
      0.285714285714      0.428571428571     -0.142857142857
      0.428571428571      0.428571428571     -0.142857142857
     -0.428571428571      0.428571428571     -0.142857142857
     -0.285714285714      0.428571428571     -0.142857142857
     -0.142857142857      0.428571428571     -0.142857142857
      0.000000000000     -0.428571428571     -0.142857142857
      0.142857142857     -0.428571428571     -0.142857142857
      0.285714285714     -0.428571428571     -0.142857142857
      0.428571428571     -0.428571428571     -0.142857142857
     -0.428571428571     -0.428571428571     -0.142857142857
     -0.285714285714     -0.428571428571     -0.142857142857
     -0.142857142857     -0.428571428571     -0.142857142857
      0.000000000000     -0.285714285714     -0.142857142857
      0.142857142857     -0.285714285714     -0.142857142857
      0.285714285714     -0.285714285714     -0.142857142857
      0.428571428571     -0.285714285714     -0.142857142857
     -0.428571428571     -0.285714285714     -0.142857142857
     -0.285714285714     -0.285714285714     -0.142857142857
     -0.142857142857     -0.285714285714     -0.142857142857
      0.000000000000     -0.142857142857     -0.142857142857
      0.142857142857     -0.142857142857     -0.142857142857
      0.285714285714     -0.142857142857     -0.142857142857
      0.428571428571     -0.142857142857     -0.142857142857
     -0.428571428571     -0.142857142857     -0.142857142857
     -0.285714285714     -0.142857142857     -0.142857142857
     -0.142857142857     -0.142857142857     -0.142857142857
end kpoints
