SYSTEM = SrVO3
NCORE = 4
NSIM = 10
LMAXMIX=6
EDIFF = 1.E-10

# CSC mode
ISTART=1
ICHARG= 5

# DOS energy window
NEDOS = 2001

! switch off symmetries
ISYM=-1

! to prevent VASP from stopping
NELM=1000
NELMIN=1000
NELMDL=-2

# Smearing procedure
ISMEAR = -5

# the energy window to optimize projector channels
EMIN = 3.9
EMAX = 7.1

# use the PAW channel optimization
LORBIT=14

# project to V d
LOCPROJ = 2 : d : Pr

LWAVE= TRUE
LCHARG = TRUE
