SYSTEM = LuNiO3-egeg
ENCUT=600
ISMEAR =  0
SIGMA =  0.001
EDIFF = 1E-8
NBANDS =576
ALGO = CRPA
NTARGET_STATES = 8*1 
LWAVE = .FALSE.
NCSHMEM=1 
