SYSTEM = LuNiO3
ENCUT = 550
NWRITE = 2
PREC = Normal

EDIFF = 1.E-08
ISYM = -1 ! I don't think it works when using symmetries
NELM=1000 ! to prevent VASP from stopping too early (either because EDIFF is reached or 60 iterations were done)


!! DOS energy window
NEDOS = 2001
!! Smearing procedure
ISMEAR = -5 ! -4 (-5) Tetrahedron (with Bloechl), 0 Gaussian, 1,... Methfessel-Paxton
SIGMA=0.01

!! Algo=Fast/Normal
ALGO = Normal

NSIM = 2 ! 4 should increase performance
NCORE = 4

LORBIT=14
LMAXMIX=6
EMIN=4.1
EMAX=7.5
LOCPROJ = 5 6 7 8 : d : Pr

!! write WAVECAR, CHGCAR
LWAVE = .TRUE.
LCHARG = .TRUE.
