SYSTEM = LuNiO3-p-dp
ENCUT=500
ISMEAR =  0
SIGMA =  0.001
EDIFF = 1E-8
NBANDS =576
ALGO = CRPA
NTARGET_STATES = 20*1 36*0 
LWAVE = .FALSE.
NCSHMEM=1
LMAXMIX=4
